QPLIB_3850
QBB
maximize
1225 # number of variables
2400 # number of quadratic terms in objective
2 1 4.0
176 1 -4.0
568 1 -4.0
816 1 4.0
681 2 -4.0
1025 2 -4.0
1079 2 4.0
4 3 4.0
166 3 -4.0
630 3 -4.0
631 3 4.0
181 4 -4.0
658 4 -4.0
1092 4 4.0
76 5 4.0
591 5 -4.0
999 5 4.0
1044 5 -4.0
7 6 4.0
15 6 4.0
19 6 -4.0
535 6 -4.0
529 7 -4.0
545 7 -4.0
803 7 4.0
9 8 4.0
587 8 -4.0
608 8 4.0
660 8 -4.0
628 9 -4.0
685 9 -4.0
1038 9 4.0
11 10 -4.0
792 10 4.0
1046 10 4.0
1049 10 -4.0
28 11 4.0
717 11 4.0
752 11 -4.0
13 12 -4.0
201 12 4.0
841 12 4.0
880 12 -4.0
382 13 4.0
580 13 -4.0
877 13 4.0
125 14 -4.0
304 14 4.0
496 14 4.0
536 14 -4.0
68 15 -4.0
496 15 -4.0
646 15 4.0
17 16 -4.0
48 16 -4.0
755 16 4.0
1098 16 4.0
76 17 -4.0
868 17 4.0
1222 17 4.0
187 18 4.0
524 18 -4.0
801 18 4.0
878 18 -4.0
83 19 -4.0
619 19 4.0
1179 19 4.0
142 20 -4.0
602 20 4.0
737 20 4.0
774 20 -4.0
497 21 -4.0
591 21 -4.0
906 21 4.0
1162 21 4.0
170 22 4.0
528 22 -4.0
766 22 4.0
915 22 -4.0
96 23 -4.0
496 23 -4.0
600 23 4.0
1118 23 4.0
157 24 -4.0
581 24 4.0
707 24 4.0
812 24 -4.0
26 25 4.0
27 25 -4.0
234 25 -4.0
1141 25 4.0
208 26 4.0
506 26 -4.0
519 26 -4.0
509 27 -4.0
858 27 4.0
1199 27 4.0
755 28 4.0
1221 28 -4.0
1224 28 -4.0
154 29 4.0
533 29 -4.0
728 29 4.0
961 29 -4.0
173 30 -4.0
565 30 4.0
678 30 4.0
851 30 -4.0
32 31 4.0
229 31 4.0
927 31 -4.0
1078 31 -4.0
359 32 -4.0
370 32 4.0
565 32 -4.0
34 33 4.0
35 33 -4.0
249 33 -4.0
1203 33 4.0
194 34 4.0
504 34 -4.0
518 34 -4.0
233 35 4.0
511 35 -4.0
895 35 4.0
280 36 4.0
362 36 4.0
1097 36 -4.0
1160 36 -4.0
792 37 4.0
1160 37 4.0
1161 37 -4.0
1164 37 -4.0
694 38 4.0
798 38 4.0
836 38 -4.0
1167 38 -4.0
40 39 4.0
189 39 -4.0
555 39 4.0
888 39 -4.0
406 40 4.0
650 40 -4.0
1018 40 -4.0
218 41 4.0
566 41 4.0
583 41 -4.0
740 41 -4.0
43 42 4.0
44 42 -4.0
195 42 4.0
987 42 -4.0
99 43 -4.0
178 43 4.0
515 43 -4.0
248 44 4.0
515 44 -4.0
936 44 4.0
46 45 4.0
135 45 -4.0
861 45 4.0
989 45 -4.0
146 46 -4.0
195 46 -4.0
196 46 4.0
290 47 4.0
349 47 4.0
1098 47 -4.0
1158 47 -4.0
49 48 4.0
794 48 4.0
1051 48 -4.0
1098 49 4.0
1099 49 -4.0
1102 49 -4.0
51 50 -4.0
722 50 4.0
761 50 4.0
839 50 -4.0
668 51 4.0
579 52 -4.0
597 52 4.0
1111 52 4.0
1171 52 -4.0
54 53 4.0
499 53 -4.0
768 53 -4.0
966 53 4.0
124 54 -4.0
226 54 4.0
528 54 -4.0
205 55 4.0
582 55 4.0
604 55 -4.0
777 55 -4.0
57 56 4.0
58 56 -4.0
179 56 4.0
938 56 -4.0
86 57 -4.0
511 57 -4.0
937 57 4.0
263 58 4.0
518 58 -4.0
985 58 4.0
60 59 4.0
148 59 -4.0
899 59 4.0
939 59 -4.0
161 60 -4.0
179 60 -4.0
1089 60 4.0
62 61 4.0
497 61 -4.0
757 61 4.0
1103 61 -4.0
1046 62 4.0
1047 62 -4.0
1050 62 -4.0
64 63 -4.0
724 63 4.0
759 63 4.0
876 63 -4.0
640 64 4.0
598 65 -4.0
617 65 4.0
728 65 -4.0
1058 65 4.0
67 66 4.0
255 66 -4.0
919 66 4.0
964 66 -4.0
108 67 -4.0
214 67 4.0
524 67 -4.0
676 68 -4.0
807 68 4.0
1014 68 4.0
582 69 -4.0
603 69 4.0
1127 69 4.0
1188 69 -4.0
192 70 4.0
603 70 4.0
623 70 -4.0
814 70 -4.0
72 71 4.0
684 71 -4.0
983 71 4.0
1137 71 -4.0
569 72 -4.0
779 72 -4.0
856 72 4.0
74 73 -4.0
162 73 4.0
896 73 -4.0
983 73 4.0
519 74 -4.0
982 74 4.0
1031 74 4.0
165 75 -4.0
897 75 -4.0
942 75 4.0
1143 75 4.0
290 76 -4.0
319 76 4.0
78 77 -4.0
696 77 4.0
796 77 4.0
913 77 -4.0
615 78 4.0
618 79 -4.0
642 79 4.0
766 79 -4.0
1008 79 4.0
81 80 4.0
82 80 -4.0
271 80 -4.0
882 80 4.0
93 81 -4.0
201 81 -4.0
202 81 4.0
154 82 -4.0
256 82 4.0
1174 82 4.0
703 83 -4.0
847 83 4.0
969 83 4.0
113 84 4.0
507 84 -4.0
564 84 -4.0
847 84 4.0
175 85 4.0
622 85 4.0
653 85 -4.0
853 85 -4.0
87 86 4.0
132 86 4.0
656 86 -4.0
557 87 -4.0
742 87 -4.0
893 87 4.0
712 88 -4.0
859 88 -4.0
992 88 4.0
1205 88 4.0
863 89 4.0
900 89 -4.0
942 89 -4.0
992 89 4.0
91 90 -4.0
138 90 4.0
835 90 4.0
956 90 -4.0
350 91 4.0
643 92 -4.0
670 92 4.0
801 92 -4.0
960 92 4.0
962 93 4.0
1009 93 -4.0
1175 93 4.0
95 94 -4.0
283 94 -4.0
844 94 4.0
1175 94 4.0
170 95 -4.0
272 95 4.0
1114 95 4.0
732 96 -4.0
885 96 4.0
922 96 4.0
368 97 -4.0
490 97 4.0
565 97 4.0
1019 97 -4.0
159 98 4.0
652 98 4.0
680 98 -4.0
890 98 -4.0
100 99 4.0
101 99 -4.0
117 99 4.0
547 100 -4.0
710 100 -4.0
934 100 4.0
386 101 4.0
394 101 4.0
606 101 -4.0
103 102 4.0
685 102 -4.0
821 102 -4.0
1036 102 4.0
133 103 4.0
512 103 -4.0
627 103 -4.0
824 104 4.0
899 104 -4.0
945 104 -4.0
1036 104 4.0
106 105 -4.0
122 105 4.0
874 105 4.0
1006 105 -4.0
363 106 4.0
671 107 -4.0
698 107 4.0
841 107 -4.0
914 107 4.0
110 108 4.0
916 108 4.0
1059 108 -4.0
110 109 4.0
111 109 -4.0
294 109 -4.0
804 109 4.0
170 110 -4.0
543 110 -4.0
187 111 -4.0
284 111 4.0
1061 111 4.0
442 112 4.0
500 112 -4.0
554 112 -4.0
646 112 4.0
356 113 4.0
500 113 -4.0
1071 113 -4.0
356 114 -4.0
483 114 4.0
581 114 4.0
974 114 -4.0
144 115 4.0
679 115 4.0
708 115 -4.0
929 115 -4.0
504 116 4.0
538 116 -4.0
682 116 -4.0
981 116 4.0
504 117 -4.0
1086 117 4.0
1140 117 -4.0
570 118 4.0
858 118 4.0
939 118 -4.0
1086 118 -4.0
210 119 4.0
861 119 -4.0
995 119 -4.0
1090 119 4.0
578 120 -4.0
797 120 4.0
910 120 4.0
1056 120 -4.0
122 121 -4.0
698 121 -4.0
726 121 4.0
797 121 4.0
400 122 4.0
640 122 -4.0
364 123 4.0
699 123 -4.0
726 123 4.0
878 123 -4.0
126 124 4.0
879 124 4.0
1112 124 -4.0
126 125 4.0
127 125 -4.0
172 125 4.0
154 126 -4.0
534 126 -4.0
201 127 -4.0
295 127 4.0
1010 127 4.0
341 128 -4.0
501 128 -4.0
619 128 4.0
808 128 4.0
342 129 -4.0
479 129 4.0
602 129 4.0
926 129 -4.0
274 130 4.0
568 130 -4.0
1021 130 4.0
1078 130 -4.0
220 131 -4.0
506 131 4.0
655 131 -4.0
1029 131 4.0
506 132 -4.0
1032 132 4.0
1202 132 -4.0
208 133 4.0
989 133 -4.0
1032 133 -4.0
135 134 -4.0
198 134 4.0
1039 134 -4.0
1147 134 4.0
332 135 4.0
823 135 4.0
596 136 -4.0
838 136 4.0
953 136 4.0
1107 136 -4.0
138 137 -4.0
670 137 -4.0
763 137 4.0
838 137 4.0
415 138 4.0
668 138 -4.0
352 139 4.0
727 139 -4.0
763 139 4.0
915 139 -4.0
304 140 4.0
524 140 -4.0
529 140 -4.0
963 140 4.0
326 141 -4.0
502 141 -4.0
600 141 4.0
770 141 4.0
623 142 -4.0
889 142 4.0
1129 142 4.0
144 143 -4.0
260 143 4.0
709 143 -4.0
1077 143 4.0
359 144 -4.0
977 144 4.0
206 145 -4.0
462 145 4.0
509 145 4.0
625 145 -4.0
194 146 4.0
986 146 -4.0
1205 146 4.0
148 147 -4.0
183 147 4.0
1093 147 -4.0
1209 147 4.0
347 148 4.0
783 148 4.0
150 149 4.0
787 149 -4.0
1047 149 4.0
1099 149 -4.0
423 150 4.0
689 150 -4.0
866 150 -4.0
152 151 4.0
642 151 -4.0
696 151 -4.0
799 151 4.0
363 152 -4.0
1057 152 4.0
1165 152 -4.0
338 153 4.0
764 153 -4.0
799 153 4.0
961 153 -4.0
802 154 4.0
528 155 -4.0
534 155 -4.0
803 155 4.0
917 155 4.0
427 156 4.0
529 156 4.0
534 156 -4.0
805 156 -4.0
653 157 -4.0
852 157 4.0
1075 157 4.0
159 158 -4.0
244 158 4.0
741 158 -4.0
1132 158 4.0
345 159 -4.0
379 159 4.0
193 160 -4.0
472 160 4.0
511 160 4.0
606 160 -4.0
178 161 4.0
937 161 -4.0
1143 161 4.0
821 162 -4.0
985 162 4.0
1143 162 -4.0
164 163 4.0
165 163 -4.0
944 163 4.0
1150 163 -4.0
222 164 4.0
587 164 -4.0
1146 164 -4.0
360 165 4.0
745 165 4.0
236 166 4.0
902 166 -4.0
944 166 4.0
168 167 4.0
750 167 -4.0
1001 167 4.0
1161 167 -4.0
413 168 4.0
663 168 -4.0
827 168 -4.0
268 169 4.0
617 169 -4.0
724 169 -4.0
912 169 4.0
767 170 4.0
324 171 4.0
533 171 -4.0
543 171 -4.0
843 171 4.0
418 172 4.0
543 172 -4.0
845 172 -4.0
680 173 -4.0
813 173 4.0
1020 173 4.0
175 174 -4.0
230 174 4.0
778 174 -4.0
1194 174 4.0
329 175 -4.0
930 175 4.0
177 176 4.0
933 176 4.0
1137 176 -4.0
230 177 -4.0
386 177 4.0
1080 177 -4.0
439 178 -4.0
894 178 -4.0
782 179 -4.0
1031 179 4.0
181 180 4.0
712 180 -4.0
994 180 4.0
1212 180 -4.0
209 181 4.0
1089 181 -4.0
183 182 -4.0
223 182 4.0
632 182 -4.0
994 182 4.0
713 183 -4.0
1151 183 4.0
185 184 4.0
788 184 -4.0
950 184 4.0
1221 184 -4.0
398 185 4.0
634 185 -4.0
786 185 -4.0
254 186 4.0
597 186 -4.0
761 186 -4.0
955 186 4.0
729 187 4.0
1175 187 -4.0
804 188 4.0
1175 188 4.0
1176 188 -4.0
1177 188 -4.0
708 189 -4.0
775 189 4.0
975 189 4.0
191 190 4.0
192 190 -4.0
219 190 4.0
815 190 -4.0
307 191 4.0
681 191 -4.0
1192 191 -4.0
315 192 -4.0
976 192 4.0
585 193 4.0
980 193 4.0
1134 193 -4.0
446 194 -4.0
857 194 -4.0
744 195 -4.0
1085 195 4.0
440 196 -4.0
628 196 4.0
1034 196 -4.0
198 197 -4.0
211 197 4.0
661 197 -4.0
1038 197 4.0
465 198 4.0
745 198 -4.0
388 199 4.0
610 199 -4.0
748 199 -4.0
906 199 4.0
238 200 4.0
579 200 -4.0
798 200 -4.0
1005 200 4.0
700 201 4.0
844 202 4.0
1115 202 -4.0
1116 202 -4.0
227 203 4.0
510 203 4.0
517 203 -4.0
1015 203 -4.0
297 204 4.0
537 204 4.0
654 204 -4.0
928 204 -4.0
307 205 -4.0
537 205 -4.0
1022 205 4.0
207 206 4.0
1028 206 4.0
1081 206 -4.0
568 207 4.0
779 207 -4.0
978 207 -4.0
818 208 -4.0
820 208 -4.0
447 209 -4.0
989 209 4.0
990 209 -4.0
455 210 4.0
520 210 -4.0
783 210 -4.0
520 211 -4.0
559 211 4.0
573 211 -4.0
381 212 4.0
590 212 -4.0
716 212 -4.0
868 212 4.0
225 213 4.0
598 213 -4.0
839 213 -4.0
1055 213 4.0
882 214 4.0
1062 214 -4.0
1063 214 -4.0
459 215 4.0
507 215 4.0
846 215 -4.0
1119 215 -4.0
287 216 4.0
928 216 -4.0
1128 216 4.0
1190 216 -4.0
286 217 4.0
287 217 -4.0
546 217 4.0
624 217 -4.0
297 218 -4.0
546 218 -4.0
1079 218 4.0
221 219 4.0
546 219 -4.0
585 219 -4.0
221 220 4.0
247 220 4.0
1025 220 -4.0
742 221 -4.0
931 221 -4.0
454 222 -4.0
939 222 4.0
940 222 -4.0
522 223 -4.0
549 223 4.0
589 223 -4.0
373 224 4.0
574 224 -4.0
689 224 -4.0
829 224 4.0
616 225 -4.0
959 225 4.0
1169 225 -4.0
385 226 -4.0
919 226 4.0
1011 226 -4.0
451 227 4.0
806 227 -4.0
1065 227 -4.0
273 228 -4.0
556 228 4.0
605 228 -4.0
739 228 4.0
286 229 -4.0
437 229 4.0
556 229 -4.0
231 230 4.0
556 230 -4.0
538 231 4.0
710 231 -4.0
891 231 -4.0
538 232 -4.0
709 232 -4.0
1027 232 4.0
1196 232 4.0
473 233 -4.0
1137 233 4.0
1138 233 -4.0
317 234 4.0
897 234 -4.0
1088 234 4.0
371 235 -4.0
464 235 -4.0
897 235 4.0
1209 235 4.0
523 236 -4.0
540 236 4.0
609 236 -4.0
361 237 4.0
560 237 -4.0
663 237 -4.0
789 237 4.0
270 238 4.0
641 238 -4.0
1109 238 -4.0
269 239 -4.0
416 239 4.0
533 239 4.0
1008 239 -4.0
392 240 -4.0
964 240 4.0
965 240 -4.0
966 240 4.0
443 241 4.0
769 241 -4.0
1013 241 -4.0
1183 241 4.0
443 242 -4.0
848 242 4.0
1183 242 4.0
1185 242 -4.0
259 243 -4.0
567 243 4.0
584 243 -4.0
776 243 4.0
245 244 4.0
567 244 -4.0
1134 244 -4.0
547 245 4.0
682 245 -4.0
854 245 -4.0
438 246 4.0
547 246 -4.0
741 246 -4.0
1083 246 4.0
248 247 4.0
547 247 -4.0
1199 247 -4.0
481 248 -4.0
1084 248 -4.0
331 249 4.0
859 249 -4.0
1034 249 4.0
525 250 4.0
660 250 -4.0
745 250 4.0
1148 250 -4.0
550 251 -4.0
634 251 -4.0
751 251 4.0
1159 251 4.0
300 252 4.0
527 252 -4.0
691 252 4.0
719 252 -4.0
669 253 4.0
723 253 4.0
762 253 -4.0
837 253 -4.0
669 254 -4.0
877 254 4.0
1110 254 -4.0
256 255 4.0
355 255 4.0
1117 255 -4.0
404 256 -4.0
918 256 -4.0
451 257 -4.0
886 257 4.0
1122 257 4.0
1124 257 -4.0
809 258 4.0
886 258 -4.0
973 258 4.0
1072 258 -4.0
452 259 4.0
814 259 -4.0
1020 259 4.0
261 260 4.0
584 260 -4.0
1081 260 -4.0
557 261 4.0
655 261 -4.0
815 261 -4.0
445 262 4.0
557 262 -4.0
778 262 -4.0
1136 262 4.0
485 263 -4.0
1028 263 4.0
1030 263 -4.0
530 264 4.0
631 264 -4.0
783 264 4.0
1091 264 -4.0
278 265 -4.0
610 265 -4.0
717 265 4.0
1220 265 4.0
291 266 4.0
532 266 -4.0
665 266 4.0
756 266 -4.0
281 267 -4.0
697 267 4.0
725 267 -4.0
760 267 4.0
697 268 -4.0
840 268 4.0
1170 268 -4.0
270 269 -4.0
375 269 4.0
840 269 4.0
476 270 4.0
915 270 -4.0
272 271 4.0
563 271 4.0
1178 271 -4.0
402 272 -4.0
419 272 -4.0
460 273 4.0
853 273 -4.0
975 273 4.0
275 274 4.0
605 274 -4.0
1025 274 -4.0
569 275 4.0
625 275 -4.0
778 275 -4.0
453 276 4.0
569 276 -4.0
815 276 -4.0
1198 276 4.0
539 277 4.0
608 277 -4.0
823 277 4.0
1037 277 -4.0
279 278 4.0
280 278 4.0
526 278 -4.0
560 279 -4.0
687 279 4.0
746 279 -4.0
590 280 -4.0
591 280 -4.0
448 281 4.0
796 281 4.0
798 281 -4.0
366 282 4.0
644 282 -4.0
800 282 4.0
959 282 -4.0
284 283 4.0
553 283 4.0
1118 283 -4.0
417 284 -4.0
428 284 -4.0
377 285 -4.0
470 285 4.0
889 285 -4.0
1191 285 4.0
708 286 -4.0
1191 286 4.0
470 287 4.0
890 287 -4.0
586 288 4.0
606 288 -4.0
709 288 4.0
741 288 -4.0
548 289 4.0
588 289 -4.0
862 289 4.0
993 289 -4.0
550 290 4.0
574 290 -4.0
551 291 -4.0
293 292 4.0
354 292 4.0
672 292 -4.0
1169 292 -4.0
763 293 4.0
764 293 -4.0
766 293 -4.0
295 294 4.0
545 294 4.0
1179 294 -4.0
426 295 -4.0
435 295 -4.0
369 296 -4.0
460 296 4.0
679 296 4.0
852 296 -4.0
679 297 4.0
680 297 -4.0
421 298 -4.0
430 298 4.0
942 298 4.0
1206 298 -4.0
308 299 4.0
558 299 4.0
572 299 -4.0
943 299 -4.0
561 300 -4.0
449 301 -4.0
726 301 4.0
1166 301 4.0
1167 301 -4.0
303 302 4.0
340 302 4.0
700 302 -4.0
1109 302 -4.0
726 303 4.0
727 303 -4.0
728 303 -4.0
434 304 -4.0
768 304 -4.0
477 305 -4.0
490 305 4.0
811 305 4.0
1123 305 -4.0
357 306 -4.0
452 306 4.0
652 306 4.0
813 306 -4.0
652 307 4.0
653 307 -4.0
464 308 -4.0
899 308 4.0
900 308 -4.0
457 309 -4.0
698 309 4.0
1106 309 4.0
1107 309 -4.0
311 310 4.0
323 310 4.0
729 310 -4.0
1110 310 -4.0
698 311 4.0
699 311 -4.0
1171 311 -4.0
599 312 4.0
675 312 -4.0
769 312 -4.0
885 312 4.0
468 313 -4.0
483 313 4.0
850 313 4.0
1069 313 -4.0
343 314 -4.0
444 314 4.0
622 314 4.0
775 314 -4.0
622 315 4.0
623 315 -4.0
1194 315 4.0
484 316 -4.0
815 316 4.0
1194 316 4.0
1196 316 -4.0
857 317 4.0
896 317 -4.0
1030 317 -4.0
319 318 -4.0
320 318 4.0
575 318 -4.0
592 318 4.0
388 319 4.0
718 319 -4.0
594 320 4.0
636 320 -4.0
666 320 -4.0
467 321 -4.0
670 321 4.0
1055 321 4.0
1056 321 -4.0
670 322 4.0
671 322 -4.0
765 322 4.0
1111 322 -4.0
324 323 4.0
765 323 -4.0
917 323 -4.0
402 324 -4.0
879 324 -4.0
326 325 4.0
536 325 4.0
553 325 -4.0
620 325 -4.0
730 326 -4.0
847 326 4.0
328 327 4.0
621 327 4.0
738 327 -4.0
889 327 -4.0
458 328 -4.0
477 328 -4.0
479 328 4.0
603 329 4.0
604 329 -4.0
1132 329 4.0
438 330 -4.0
491 330 -4.0
854 330 4.0
1132 330 4.0
894 331 4.0
938 331 -4.0
984 331 -4.0
396 332 4.0
629 332 -4.0
1034 332 -4.0
334 333 4.0
335 333 -4.0
336 333 4.0
593 333 -4.0
373 334 4.0
664 334 -4.0
1220 334 -4.0
398 335 4.0
635 335 4.0
754 335 -4.0
611 336 -4.0
613 336 4.0
638 336 -4.0
476 337 -4.0
642 337 4.0
1005 337 4.0
1006 337 -4.0
339 338 4.0
340 338 -4.0
802 338 -4.0
642 339 4.0
643 339 -4.0
1058 339 -4.0
963 340 -4.0
1173 340 4.0
645 341 4.0
701 341 -4.0
807 341 4.0
343 342 -4.0
601 342 4.0
887 342 4.0
344 343 4.0
850 343 4.0
582 344 4.0
708 344 -4.0
1126 344 -4.0
582 345 4.0
583 345 -4.0
1077 345 4.0
445 346 -4.0
891 346 4.0
1077 346 4.0
1078 346 -4.0
658 347 -4.0
822 347 4.0
990 347 -4.0
361 348 4.0
611 348 4.0
636 348 -4.0
1159 348 -4.0
413 349 4.0
611 349 -4.0
791 349 -4.0
596 350 -4.0
838 350 -4.0
955 350 4.0
617 351 4.0
955 351 4.0
956 351 -4.0
958 351 -4.0
353 352 4.0
354 352 -4.0
842 352 -4.0
617 353 4.0
618 353 -4.0
1008 353 -4.0
1010 354 -4.0
1113 354 4.0
673 355 -4.0
730 355 -4.0
1177 355 4.0
357 356 -4.0
849 356 4.0
358 357 4.0
811 357 4.0
566 358 4.0
680 358 -4.0
1072 358 -4.0
566 359 4.0
1021 359 4.0
685 360 -4.0
860 360 4.0
940 360 -4.0
1097 361 -4.0
1099 361 -4.0
423 362 4.0
636 362 -4.0
831 362 -4.0
578 363 -4.0
912 363 4.0
365 364 4.0
366 364 -4.0
879 364 -4.0
597 365 4.0
598 365 -4.0
960 365 -4.0
1060 366 4.0
1061 366 -4.0
701 367 -4.0
769 367 -4.0
966 367 4.0
1116 367 4.0
369 368 -4.0
564 368 4.0
810 368 4.0
370 369 4.0
773 369 4.0
653 370 -4.0
1018 370 -4.0
439 371 -4.0
571 371 4.0
896 371 4.0
996 372 4.0
1211 372 4.0
1212 372 -4.0
1215 372 -4.0
1045 373 -4.0
1047 373 -4.0
431 374 4.0
664 374 -4.0
717 374 4.0
870 374 -4.0
433 375 4.0
914 375 -4.0
1114 375 -4.0
730 376 -4.0
806 376 -4.0
919 376 4.0
1063 376 4.0
378 377 4.0
736 377 4.0
1071 377 -4.0
583 378 4.0
623 378 -4.0
973 378 -4.0
471 379 -4.0
929 379 -4.0
1024 379 4.0
1040 380 4.0
1149 380 4.0
1150 380 -4.0
1153 380 -4.0
592 381 4.0
1000 381 -4.0
1001 381 -4.0
425 382 4.0
960 382 -4.0
1174 382 -4.0
385 383 4.0
965 383 4.0
1011 383 -4.0
1063 383 -4.0
385 384 4.0
769 384 -4.0
846 384 -4.0
882 384 4.0
1117 385 -4.0
463 386 -4.0
1197 386 -4.0
1092 387 4.0
1093 387 -4.0
1094 387 4.0
1095 387 -4.0
949 388 -4.0
950 388 -4.0
615 389 4.0
1165 389 -4.0
392 390 4.0
918 390 4.0
1062 390 -4.0
1116 390 -4.0
392 391 4.0
806 391 -4.0
844 391 4.0
884 391 -4.0
1064 392 -4.0
473 393 -4.0
626 393 4.0
1134 393 4.0
1135 393 -4.0
395 394 4.0
626 394 -4.0
781 394 -4.0
895 395 -4.0
934 395 -4.0
1085 395 4.0
446 396 4.0
991 396 -4.0
1087 396 -4.0
1038 397 4.0
1039 397 -4.0
1041 397 -4.0
1152 397 4.0
905 398 -4.0
907 398 -4.0
640 399 4.0
1105 399 -4.0
643 400 4.0
761 400 -4.0
764 400 -4.0
402 401 4.0
404 401 4.0
1115 401 -4.0
1177 401 -4.0
880 402 4.0
404 403 4.0
804 403 4.0
846 403 -4.0
921 403 -4.0
1012 404 -4.0
406 405 4.0
648 405 4.0
649 405 -4.0
705 405 -4.0
678 406 -4.0
733 406 -4.0
481 407 -4.0
657 407 4.0
1081 407 4.0
1082 407 -4.0
409 408 4.0
656 408 4.0
657 408 -4.0
818 408 -4.0
893 409 -4.0
936 409 -4.0
1031 409 4.0
439 410 4.0
1033 410 -4.0
1035 410 -4.0
1207 410 4.0
659 411 4.0
1207 411 4.0
1208 411 -4.0
1210 411 -4.0
456 412 -4.0
994 412 4.0
995 412 -4.0
1214 412 4.0
867 413 -4.0
869 413 -4.0
668 414 4.0
1054 414 -4.0
671 415 4.0
724 415 -4.0
727 415 -4.0
417 416 4.0
672 416 -4.0
918 416 -4.0
881 417 4.0
1173 417 -4.0
419 418 4.0
884 418 -4.0
968 418 -4.0
881 419 4.0
967 419 -4.0
485 420 -4.0
683 420 4.0
1025 420 4.0
1026 420 -4.0
429 421 4.0
988 421 -4.0
1145 421 4.0
686 422 4.0
1145 422 4.0
1146 422 -4.0
1148 422 -4.0
828 423 -4.0
830 423 -4.0
695 424 4.0
1004 424 -4.0
426 425 4.0
700 425 -4.0
965 425 -4.0
843 426 4.0
1113 426 -4.0
428 427 4.0
921 427 -4.0
1013 427 -4.0
843 428 4.0
920 428 -4.0
936 429 4.0
937 429 -4.0
940 429 -4.0
713 430 4.0
1089 430 -4.0
1091 430 -4.0
787 431 4.0
788 431 -4.0
790 431 -4.0
723 432 4.0
954 432 -4.0
434 433 4.0
729 433 -4.0
1011 433 -4.0
803 434 4.0
1060 434 -4.0
803 435 4.0
805 435 4.0
883 435 -4.0
739 436 4.0
1189 436 4.0
1190 436 -4.0
1193 436 -4.0
438 437 4.0
740 437 -4.0
1196 437 -4.0
1135 438 -4.0
895 439 4.0
745 440 4.0
1035 440 4.0
1037 440 -4.0
760 441 4.0
911 441 -4.0
443 442 4.0
772 442 -4.0
849 442 -4.0
1182 443 -4.0
776 444 4.0
1128 444 -4.0
1131 444 -4.0
1079 445 4.0
1082 445 -4.0
858 446 4.0
860 446 -4.0
783 447 4.0
991 447 4.0
993 447 -4.0
875 448 -4.0
800 449 4.0
1168 449 4.0
1170 449 -4.0
451 450 4.0
807 450 4.0
810 450 -4.0
887 450 -4.0
1121 451 -4.0
1074 452 -4.0
1076 452 -4.0
1022 453 4.0
1023 453 -4.0
1026 453 -4.0
823 454 4.0
941 454 4.0
943 454 -4.0
456 455 4.0
824 455 -4.0
1041 455 -4.0
826 456 4.0
997 456 -4.0
840 457 4.0
1108 457 4.0
1110 457 -4.0
459 458 4.0
847 458 4.0
849 458 -4.0
1067 459 -4.0
1184 459 -4.0
1019 460 -4.0
1130 460 -4.0
855 461 4.0
976 461 4.0
977 461 -4.0
979 461 -4.0
463 462 4.0
857 462 -4.0
1084 462 -4.0
1198 463 4.0
1199 463 -4.0
862 464 4.0
898 464 4.0
466 465 4.0
863 465 -4.0
1095 465 -4.0
865 466 4.0
947 466 -4.0
1213 466 -4.0
877 467 4.0
1057 467 4.0
1109 467 -4.0
469 468 4.0
885 468 4.0
887 468 -4.0
1015 469 4.0
1016 469 -4.0
1123 469 -4.0
974 470 -4.0
1192 470 -4.0
892 471 4.0
930 471 4.0
932 471 -4.0
473 472 4.0
894 472 -4.0
1138 472 -4.0
1136 473 4.0
475 474 4.0
909 474 -4.0
495 475 -4.0
1223 475 4.0
1224 475 -4.0
1007 476 4.0
1169 476 -4.0
478 477 4.0
923 477 4.0
970 478 4.0
971 478 -4.0
1069 478 -4.0
1185 479 -4.0
1188 479 -4.0
481 480 4.0
933 480 4.0
935 480 -4.0
1200 480 -4.0
1083 481 4.0
952 482 -4.0
1225 482 4.0
1124 483 -4.0
1127 483 -4.0
977 484 4.0
1192 484 4.0
1193 484 -4.0
982 485 4.0
1027 485 4.0
487 486 4.0
1003 486 -4.0
1101 487 4.0
1102 487 -4.0
1104 487 -4.0
1004 488 4.0
1165 488 -4.0
1009 489 4.0
1169 489 4.0
1170 489 -4.0
1172 489 -4.0
1070 490 -4.0
1073 490 -4.0
1023 491 4.0
1130 491 4.0
1131 491 -4.0
1054 492 4.0
1105 492 -4.0
1059 493 4.0
1109 493 4.0
1110 493 -4.0
1112 493 -4.0
1097 494 4.0
1216 494 4.0
1217 494 -4.0
1219 494 -4.0
1225 495 4.0
544 496 -4.0
1049 497 -4.0
1160 497 4.0
564 498 -4.0
601 498 -4.0
807 498 -4.0
885 498 4.0
513 499 -4.0
529 499 -4.0
880 499 -4.0
621 500 -4.0
923 500 4.0
601 501 -4.0
650 501 -4.0
972 501 4.0
621 502 -4.0
677 502 -4.0
1017 502 4.0
650 503 -4.0
675 503 -4.0
704 503 -4.0
1068 503 4.0
626 504 -4.0
648 505 -4.0
677 505 -4.0
734 505 -4.0
1122 505 4.0
657 506 -4.0
514 507 -4.0
554 507 -4.0
649 508 -4.0
704 508 -4.0
771 508 -4.0
1183 508 4.0
683 509 -4.0
983 509 -4.0
676 510 -4.0
734 510 -4.0
809 510 -4.0
711 511 -4.0
895 512 4.0
897 512 -4.0
1140 512 -4.0
842 513 4.0
964 513 -4.0
1172 513 -4.0
703 514 -4.0
771 514 -4.0
848 514 -4.0
743 515 -4.0
933 515 4.0
859 516 -4.0
936 516 4.0
1202 516 -4.0
1205 516 -4.0
732 517 -4.0
809 517 -4.0
886 517 -4.0
780 518 -4.0
980 518 4.0
817 519 -4.0
1028 519 4.0
687 520 -4.0
1092 520 4.0
541 521 -4.0
1052 521 -4.0
714 522 -4.0
824 522 -4.0
1149 522 4.0
746 523 -4.0
863 523 -4.0
1211 523 4.0
672 524 4.0
632 525 -4.0
784 525 -4.0
900 525 -4.0
574 526 -4.0
661 526 4.0
784 526 -4.0
576 527 -4.0
644 528 4.0
661 530 -4.0
825 530 -4.0
945 530 -4.0
550 531 -4.0
590 531 -4.0
632 531 4.0
825 531 -4.0
594 532 -4.0
964 533 -4.0
535 534 -4.0
553 535 -4.0
843 535 4.0
599 536 -4.0
768 536 -4.0
568 537 -4.0
854 537 -4.0
1137 538 -4.0
687 539 -4.0
864 539 -4.0
995 539 -4.0
560 540 -4.0
610 540 -4.0
864 540 -4.0
542 541 -4.0
637 541 4.0
793 541 -4.0
613 542 -4.0
544 543 -4.0
563 544 -4.0
881 544 4.0
599 545 -4.0
645 545 -4.0
891 546 -4.0
714 548 -4.0
901 548 -4.0
1039 548 -4.0
574 549 -4.0
634 549 -4.0
901 549 -4.0
1154 550 -4.0
552 551 -4.0
612 551 4.0
832 551 -4.0
638 552 -4.0
673 553 -4.0
599 554 -4.0
673 554 -4.0
566 555 -4.0
622 555 4.0
1073 555 4.0
931 556 -4.0
1028 557 -4.0
746 558 -4.0
946 558 -4.0
1093 558 -4.0
590 559 -4.0
663 559 -4.0
946 559 -4.0
749 560 -4.0
562 561 -4.0
593 561 4.0
871 561 -4.0
666 562 -4.0
645 563 -4.0
701 563 -4.0
651 564 -4.0
652 565 4.0
740 567 -4.0
978 567 -4.0
980 569 -4.0
571 570 -4.0
607 570 -4.0
820 570 -4.0
628 571 -4.0
712 571 -4.0
784 572 -4.0
996 572 -4.0
1150 572 -4.0
610 573 -4.0
689 573 -4.0
996 573 -4.0
576 575 4.0
664 575 -4.0
692 575 -4.0
577 576 -4.0
1223 576 -4.0
692 577 -4.0
580 579 -4.0
1057 579 4.0
914 580 -4.0
958 580 -4.0
583 581 -4.0
679 581 4.0
777 584 -4.0
1024 584 -4.0
816 585 -4.0
1024 585 -4.0
656 586 -4.0
855 586 -4.0
933 586 -4.0
629 587 -4.0
1149 587 4.0
825 588 -4.0
1040 588 -4.0
1212 588 -4.0
634 589 -4.0
716 589 -4.0
1040 589 -4.0
592 591 4.0
690 592 -4.0
690 593 -4.0
720 593 -4.0
595 594 -4.0
1163 594 -4.0
720 595 -4.0
1007 597 4.0
1108 598 4.0
675 600 -4.0
1181 600 4.0
1125 601 -4.0
604 602 -4.0
1191 602 4.0
1189 603 4.0
925 604 -4.0
814 605 -4.0
1080 605 -4.0
892 606 -4.0
658 607 -4.0
782 607 -4.0
1090 607 4.0
864 608 -4.0
1094 608 -4.0
663 609 -4.0
748 609 -4.0
1094 609 -4.0
612 611 -4.0
718 612 -4.0
757 612 -4.0
614 613 -4.0
1101 613 -4.0
757 614 -4.0
797 615 -4.0
1005 615 4.0
618 616 -4.0
876 616 -4.0
1106 616 4.0
1168 618 4.0
648 619 -4.0
1120 619 4.0
648 620 -4.0
806 620 -4.0
923 620 4.0
1186 621 -4.0
709 624 -4.0
853 624 -4.0
1133 624 -4.0
626 625 -4.0
932 625 -4.0
629 627 -4.0
744 627 -4.0
1147 627 4.0
630 628 -4.0
630 629 -4.0
1038 630 -4.0
901 631 -4.0
1152 631 -4.0
633 632 -4.0
689 633 -4.0
786 633 -4.0
1152 633 -4.0
749 635 -4.0
1046 635 -4.0
1219 635 -4.0
637 636 -4.0
754 637 -4.0
794 637 -4.0
639 638 -4.0
1050 638 -4.0
794 639 -4.0
1055 640 4.0
643 641 -4.0
913 641 -4.0
1166 641 4.0
880 644 -4.0
1058 644 -4.0
647 645 -4.0
649 646 -4.0
1066 646 4.0
649 647 -4.0
846 647 -4.0
972 647 4.0
850 650 4.0
738 651 -4.0
848 651 -4.0
1018 651 4.0
741 654 -4.0
890 654 -4.0
1195 654 -4.0
657 655 -4.0
979 655 -4.0
816 656 -4.0
659 658 4.0
994 659 -4.0
1092 659 4.0
946 660 -4.0
1214 660 -4.0
662 661 -4.0
716 662 -4.0
827 662 -4.0
1214 662 -4.0
665 664 -4.0
791 665 -4.0
833 665 -4.0
667 666 -4.0
1102 666 -4.0
833 667 -4.0
1106 668 4.0
671 669 -4.0
956 669 -4.0
1111 672 -4.0
674 673 -4.0
676 674 -4.0
884 674 -4.0
1017 674 4.0
733 675 4.0
733 676 -4.0
678 677 -4.0
811 677 4.0
1072 678 -4.0
778 681 -4.0
929 681 -4.0
683 682 -4.0
1026 682 -4.0
856 683 -4.0
819 684 -4.0
856 684 -4.0
985 684 -4.0
686 685 4.0
944 686 -4.0
1149 686 4.0
688 687 -4.0
748 688 -4.0
866 688 -4.0
1215 688 4.0
691 690 -4.0
753 690 -4.0
831 691 -4.0
872 691 -4.0
693 692 -4.0
1164 692 -4.0
872 693 -4.0
695 694 4.0
696 695 -4.0
1166 695 4.0
957 696 -4.0
699 697 -4.0
1006 697 -4.0
957 699 -4.0
1171 700 -4.0
702 701 -4.0
703 702 -4.0
921 702 -4.0
1068 702 4.0
770 703 -4.0
707 704 -4.0
773 704 4.0
707 705 -4.0
770 705 -4.0
1186 705 4.0
771 706 4.0
924 706 4.0
1126 706 -4.0
1185 706 4.0
1126 707 -4.0
711 710 -4.0
1082 710 -4.0
893 711 -4.0
1027 711 4.0
713 712 4.0
1211 713 4.0
715 714 -4.0
1154 714 -4.0
786 715 -4.0
904 715 -4.0
1153 715 4.0
787 716 -4.0
1045 717 -4.0
719 718 -4.0
790 718 -4.0
870 719 -4.0
909 719 -4.0
721 720 -4.0
1224 720 -4.0
909 721 -4.0
723 722 4.0
724 723 -4.0
727 725 -4.0
799 725 -4.0
1056 725 -4.0
729 728 -4.0
731 730 -4.0
732 731 -4.0
968 731 -4.0
1122 731 4.0
808 732 -4.0
735 733 -4.0
736 734 4.0
737 734 -4.0
737 735 -4.0
808 735 -4.0
1125 735 4.0
1124 736 4.0
1187 736 -4.0
1187 737 -4.0
925 738 -4.0
1189 738 4.0
740 739 -4.0
1129 739 4.0
743 742 -4.0
1135 742 -4.0
934 743 -4.0
1083 743 4.0
896 744 -4.0
1035 744 4.0
747 746 -4.0
827 747 -4.0
948 747 -4.0
1095 747 4.0
750 748 -4.0
752 749 -4.0
1157 749 -4.0
752 750 -4.0
948 750 -4.0
753 751 4.0
1000 751 -4.0
1160 751 4.0
753 752 -4.0
908 753 -4.0
756 754 -4.0
830 754 -4.0
872 755 4.0
952 755 -4.0
908 756 -4.0
952 756 -4.0
758 757 -4.0
952 758 -4.0
760 759 4.0
761 760 -4.0
763 762 -4.0
764 762 -4.0
1107 762 -4.0
767 765 -4.0
1170 765 -4.0
767 766 -4.0
1060 767 -4.0
845 768 -4.0
772 770 -4.0
774 771 -4.0
774 772 -4.0
1071 772 4.0
775 773 -4.0
1070 773 4.0
775 774 -4.0
777 776 -4.0
1075 776 4.0
1079 777 -4.0
780 779 -4.0
1197 779 -4.0
981 780 -4.0
1136 780 4.0
858 781 -4.0
981 781 -4.0
1139 781 4.0
938 782 -4.0
991 782 4.0
785 784 -4.0
866 785 -4.0
998 785 -4.0
1041 785 4.0
788 786 -4.0
904 787 -4.0
998 788 -4.0
790 789 4.0
949 789 -4.0
1098 789 4.0
951 790 -4.0
793 791 -4.0
869 791 -4.0
833 792 4.0
1003 792 -4.0
951 793 -4.0
1003 793 -4.0
795 794 -4.0
1003 795 -4.0
1168 797 4.0
1168 798 -4.0
800 799 4.0
801 800 -4.0
802 801 -4.0
1113 802 -4.0
883 804 -4.0
968 805 -4.0
1065 805 -4.0
810 808 -4.0
812 809 -4.0
812 810 -4.0
813 811 -4.0
813 812 -4.0
1022 814 -4.0
817 816 -4.0
1029 817 -4.0
1198 817 4.0
1029 818 -4.0
1201 818 4.0
820 819 -4.0
935 819 4.0
987 819 -4.0
822 820 -4.0
941 821 4.0
987 821 -4.0
941 822 -4.0
1142 822 -4.0
824 823 -4.0
826 825 -4.0
904 826 -4.0
1043 826 -4.0
828 827 -4.0
906 828 -4.0
1043 828 -4.0
830 829 4.0
905 829 -4.0
1046 829 4.0
1002 830 -4.0
832 831 -4.0
907 831 -4.0
1002 832 -4.0
1051 832 -4.0
834 833 -4.0
1051 834 -4.0
837 835 4.0
837 836 -4.0
839 837 -4.0
1108 838 4.0
1108 839 -4.0
841 840 -4.0
842 841 -4.0
1173 842 -4.0
920 844 -4.0
1013 845 -4.0
1119 845 -4.0
851 848 -4.0
851 849 -4.0
852 850 -4.0
852 851 -4.0
976 853 -4.0
855 854 -4.0
1198 855 -4.0
857 856 -4.0
898 859 4.0
898 860 -4.0
1204 860 -4.0
862 861 4.0
1207 861 4.0
863 862 -4.0
865 864 -4.0
948 865 -4.0
1096 865 -4.0
867 866 -4.0
868 867 -4.0
1096 867 -4.0
869 868 4.0
1048 869 -4.0
871 870 -4.0
950 870 -4.0
1048 871 -4.0
1103 871 -4.0
873 872 -4.0
1103 873 -4.0
875 874 4.0
876 875 -4.0
1166 875 -4.0
1057 876 -4.0
878 877 -4.0
879 878 -4.0
1176 881 -4.0
967 882 -4.0
1065 883 -4.0
1180 883 -4.0
1015 884 -4.0
888 886 -4.0
888 887 -4.0
889 888 -4.0
930 890 -4.0
892 891 -4.0
1136 892 -4.0
894 893 -4.0
1147 898 4.0
1145 899 4.0
1151 900 -4.0
903 901 -4.0
903 902 -4.0
1151 902 -4.0
1154 902 -4.0
998 903 -4.0
1156 903 -4.0
905 904 -4.0
1156 905 -4.0
907 906 4.0
1100 907 -4.0
1001 908 -4.0
1223 908 -4.0
1049 909 4.0
911 910 4.0
913 911 -4.0
1106 911 -4.0
1007 912 4.0
1105 912 -4.0
1007 913 -4.0
916 914 -4.0
916 915 -4.0
917 916 -4.0
918 917 -4.0
1012 919 -4.0
922 920 -4.0
1119 920 -4.0
970 921 -4.0
970 922 -4.0
1012 922 -4.0
1182 923 -4.0
925 924 -4.0
926 924 -4.0
1125 924 -4.0
927 925 -4.0
927 926 -4.0
1129 926 4.0
928 927 -4.0
929 928 -4.0
1080 930 4.0
932 931 -4.0
1023 931 4.0
1083 932 -4.0
935 934 -4.0
937 935 -4.0
940 938 4.0
1141 939 -4.0
1090 941 4.0
943 942 4.0
945 943 -4.0
1213 944 4.0
1213 945 -4.0
947 946 -4.0
1043 947 -4.0
1218 947 -4.0
949 948 -4.0
1218 949 -4.0
1162 950 -4.0
1047 951 -4.0
1163 951 -4.0
954 953 4.0
956 954 -4.0
1055 954 -4.0
1054 955 -4.0
958 957 -4.0
1167 957 -4.0
959 958 -4.0
961 959 -4.0
962 960 -4.0
962 961 -4.0
963 962 -4.0
965 963 -4.0
1064 966 -4.0
969 967 -4.0
1180 967 -4.0
971 968 -4.0
971 969 -4.0
1064 969 -4.0
1183 970 -4.0
1122 971 -4.0
1069 972 4.0
1121 972 -4.0
974 973 -4.0
1186 973 -4.0
1075 974 4.0
1074 975 4.0
1192 975 -4.0
1133 976 4.0
978 977 4.0
979 978 -4.0
1027 979 -4.0
982 980 4.0
984 981 -4.0
984 982 -4.0
986 983 4.0
986 984 -4.0
988 985 4.0
988 986 -4.0
990 987 4.0
990 988 -4.0
1203 989 -4.0
1036 991 4.0
993 992 4.0
1035 992 4.0
995 993 -4.0
997 996 -4.0
999 997 -4.0
1096 997 -4.0
1000 998 -4.0
1000 999 -4.0
1155 999 -4.0
1222 1001 -4.0
1099 1002 -4.0
1101 1002 -4.0
1005 1004 -4.0
1006 1004 -4.0
1009 1008 -4.0
1010 1009 -4.0
1011 1010 -4.0
1014 1012 -4.0
1016 1013 -4.0
1016 1014 -4.0
1117 1014 -4.0
1180 1015 -4.0
1068 1016 -4.0
1067 1017 -4.0
1123 1017 4.0
1019 1018 -4.0
1020 1019 4.0
1130 1020 -4.0
1023 1021 4.0
1193 1021 -4.0
1195 1022 4.0
1026 1024 -4.0
1030 1029 -4.0
1032 1030 -4.0
1033 1031 4.0
1033 1032 -4.0
1034 1033 -4.0
1037 1036 4.0
1039 1037 -4.0
1042 1040 -4.0
1042 1041 -4.0
1044 1042 -4.0
1156 1042 -4.0
1045 1043 -4.0
1045 1044 -4.0
1217 1044 -4.0
1050 1048 -4.0
1161 1048 -4.0
1052 1049 -4.0
1052 1050 -4.0
1053 1051 -4.0
1053 1052 -4.0
1056 1054 -4.0
1059 1058 -4.0
1061 1059 -4.0
1062 1060 -4.0
1062 1061 -4.0
1178 1063 -4.0
1066 1064 -4.0
1067 1065 -4.0
1067 1066 -4.0
1178 1066 -4.0
1184 1068 4.0
1070 1069 -4.0
1184 1070 -4.0
1073 1071 -4.0
1074 1072 -4.0
1074 1073 -4.0
1076 1075 -4.0
1078 1076 -4.0
1132 1076 -4.0
1131 1077 -4.0
1082 1080 -4.0
1195 1081 -4.0
1086 1084 -4.0
1201 1084 -4.0
1087 1085 4.0
1200 1085 -4.0
1087 1086 -4.0
1088 1087 -4.0
1089 1088 -4.0
1207 1088 -4.0
1091 1090 4.0
1093 1091 -4.0
1216 1094 -4.0
1216 1095 -4.0
1097 1096 -4.0
1102 1100 -4.0
1221 1100 -4.0
1223 1100 -4.0
1222 1101 -4.0
1104 1103 -4.0
1107 1105 -4.0
1112 1111 -4.0
1114 1112 -4.0
1115 1113 -4.0
1115 1114 -4.0
1118 1116 -4.0
1120 1117 -4.0
1120 1118 -4.0
1121 1119 -4.0
1121 1120 -4.0
1124 1123 -4.0
1127 1125 -4.0
1128 1126 -4.0
1128 1127 -4.0
1131 1129 -4.0
1194 1130 -4.0
1134 1133 -4.0
1135 1133 -4.0
1139 1138 -4.0
1140 1138 -4.0
1142 1139 4.0
1203 1139 4.0
1142 1140 -4.0
1144 1141 4.0
1201 1141 4.0
1144 1142 -4.0
1146 1143 4.0
1145 1144 -4.0
1146 1144 -4.0
1148 1147 4.0
1150 1148 -4.0
1153 1151 -4.0
1155 1152 -4.0
1155 1153 -4.0
1157 1154 -4.0
1157 1155 -4.0
1158 1156 -4.0
1158 1157 -4.0
1159 1158 -4.0
1161 1159 -4.0
1163 1162 -4.0
1164 1162 -4.0
1225 1163 4.0
1225 1164 -4.0
1167 1165 -4.0
1172 1171 -4.0
1174 1172 -4.0
1176 1173 -4.0
1176 1174 -4.0
1179 1177 -4.0
1181 1178 -4.0
1181 1179 -4.0
1182 1180 -4.0
1182 1181 -4.0
1185 1184 -4.0
1188 1186 -4.0
1189 1187 -4.0
1190 1187 -4.0
1190 1188 -4.0
1193 1191 -4.0
1197 1195 -4.0
1197 1196 -4.0
1200 1199 -4.0
1202 1200 -4.0
1204 1201 4.0
1204 1202 -4.0
1206 1203 4.0
1206 1204 -4.0
1208 1205 4.0
1208 1206 -4.0
1209 1208 -4.0
1210 1209 4.0
1211 1210 -4.0
1212 1210 -4.0
1215 1213 -4.0
1217 1214 -4.0
1217 1215 -4.0
1218 1216 -4.0
1219 1218 -4.0
1220 1219 -4.0
1221 1220 -4.0
1224 1222 -4.0
0.0 # default value for linear coefficients in objective
730 # number of non-default linear coefficients in objective
496 2.0
497 2.0
498 2.0
499 4.0
500 2.0
501 2.0
502 2.0
503 2.0
504 2.0
505 2.0
506 2.0
507 2.0
508 2.0
509 2.0
510 2.0
511 2.0
512 2.0
513 2.0
514 4.0
515 2.0
516 2.0
517 4.0
518 2.0
519 2.0
520 2.0
521 2.0
522 2.0
523 2.0
524 2.0
525 2.0
526 2.0
527 2.0
528 2.0
529 2.0
530 2.0
531 2.0
532 2.0
533 2.0
534 4.0
535 2.0
536 2.0
537 2.0
538 2.0
539 2.0
540 2.0
541 2.0
542 2.0
543 4.0
544 2.0
545 2.0
546 2.0
547 2.0
548 2.0
549 2.0
550 2.0
551 2.0
552 2.0
553 2.0
554 4.0
555 -2.0
556 2.0
557 2.0
558 2.0
559 2.0
560 4.0
561 2.0
562 2.0
563 2.0
564 2.0
565 -2.0
566 -2.0
567 2.0
568 2.0
569 2.0
570 2.0
571 2.0
572 4.0
573 4.0
574 4.0
575 2.0
576 2.0
577 2.0
578 2.0
579 2.0
580 4.0
581 -2.0
582 -2.0
583 2.0
584 4.0
585 2.0
586 2.0
587 2.0
588 4.0
589 4.0
590 4.0
591 2.0
592 -2.0
593 2.0
594 2.0
595 2.0
596 2.0
597 -2.0
598 2.0
599 2.0
600 -2.0
601 2.0
602 -2.0
603 -4.0
604 4.0
605 4.0
606 4.0
607 2.0
608 2.0
609 4.0
610 4.0
611 2.0
612 2.0
613 2.0
614 2.0
615 -2.0
616 2.0
617 -2.0
618 2.0
619 -2.0
620 2.0
621 2.0
622 -4.0
623 4.0
624 4.0
625 4.0
626 2.0
627 2.0
628 2.0
629 4.0
630 4.0
631 2.0
632 2.0
633 4.0
634 4.0
635 2.0
636 4.0
637 2.0
638 4.0
639 2.0
640 -2.0
641 2.0
642 -2.0
643 2.0
644 2.0
645 2.0
646 -2.0
647 2.0
648 2.0
649 4.0
650 2.0
651 2.0
652 -4.0
653 4.0
654 4.0
655 4.0
656 2.0
657 2.0
658 2.0
659 -2.0
660 4.0
661 2.0
662 4.0
663 4.0
664 4.0
665 2.0
666 4.0
667 2.0
668 -2.0
669 2.0
670 -2.0
671 2.0
672 2.0
673 4.0
674 2.0
675 2.0
676 4.0
677 2.0
678 2.0
679 -4.0
680 4.0
681 4.0
682 4.0
683 2.0
684 4.0
685 2.0
686 -2.0
687 2.0
688 2.0
689 4.0
690 4.0
691 2.0
692 4.0
693 2.0
694 -2.0
695 -2.0
696 2.0
697 2.0
698 -2.0
699 4.0
700 2.0
701 4.0
702 2.0
703 4.0
704 2.0
705 2.0
706 -2.0
707 2.0
708 4.0
709 2.0
710 4.0
711 2.0
712 2.0
713 -2.0
714 4.0
715 2.0
716 4.0
717 -2.0
718 4.0
719 4.0
720 4.0
721 2.0
722 -2.0
723 -2.0
724 2.0
725 4.0
726 -4.0
727 4.0
728 2.0
729 2.0
730 4.0
731 2.0
732 4.0
733 2.0
734 2.0
735 2.0
736 -2.0
737 2.0
738 2.0
739 -2.0
740 4.0
741 4.0
742 4.0
743 2.0
744 2.0
745 -2.0
746 4.0
747 2.0
748 4.0
749 4.0
750 4.0
751 -2.0
752 4.0
753 2.0
754 4.0
755 -2.0
756 4.0
757 2.0
758 2.0
759 -2.0
760 -2.0
761 2.0
762 4.0
763 -2.0
764 4.0
765 2.0
766 2.0
767 2.0
768 4.0
769 4.0
770 2.0
771 2.0
772 2.0
773 -2.0
774 4.0
775 2.0
776 -2.0
777 4.0
778 4.0
779 4.0
780 2.0
781 2.0
782 2.0
783 -2.0
784 4.0
785 2.0
786 4.0
787 2.0
788 4.0
789 -2.0
790 2.0
791 4.0
792 -2.0
793 4.0
794 2.0
795 2.0
796 -2.0
797 -2.0
798 2.0
799 -2.0
800 -2.0
801 2.0
802 2.0
803 -4.0
804 -2.0
805 2.0
806 4.0
807 -2.0
808 2.0
809 2.0
810 2.0
811 -2.0
812 4.0
813 2.0
814 4.0
815 2.0
816 2.0
817 2.0
818 2.0
819 2.0
820 4.0
821 2.0
822 2.0
823 -2.0
824 2.0
825 4.0
826 2.0
827 4.0
828 4.0
829 -2.0
830 2.0
831 4.0
832 4.0
833 2.0
834 2.0
835 -2.0
836 2.0
837 2.0
838 -2.0
839 4.0
840 -2.0
841 2.0
842 2.0
843 -4.0
844 -2.0
845 4.0
846 4.0
847 -4.0
848 2.0
849 2.0
850 -2.0
851 4.0
852 2.0
853 4.0
854 2.0
855 2.0
856 2.0
857 2.0
858 -2.0
859 2.0
860 2.0
861 -2.0
862 -2.0
863 2.0
864 4.0
865 2.0
866 4.0
867 4.0
868 -2.0
869 2.0
870 4.0
871 4.0
872 2.0
873 2.0
874 -2.0
875 2.0
876 4.0
877 -2.0
878 4.0
879 2.0
880 2.0
881 -2.0
882 -2.0
883 4.0
884 4.0
885 -4.0
886 2.0
887 2.0
888 4.0
889 2.0
890 4.0
891 2.0
892 2.0
893 2.0
894 2.0
895 -2.0
896 2.0
897 2.0
898 -2.0
899 -2.0
900 4.0
901 4.0
902 4.0
903 4.0
904 4.0
905 4.0
906 -2.0
907 2.0
908 4.0
909 2.0
910 -2.0
911 2.0
912 -2.0
913 4.0
914 2.0
915 4.0
916 2.0
917 2.0
918 2.0
919 -2.0
920 4.0
921 4.0
922 2.0
923 -2.0
924 2.0
925 4.0
926 2.0
927 4.0
928 4.0
929 4.0
930 -2.0
931 2.0
932 4.0
933 -2.0
934 2.0
935 2.0
936 -2.0
937 2.0
938 2.0
939 2.0
940 2.0
941 -2.0
942 -2.0
943 2.0
944 -2.0
945 4.0
946 4.0
947 4.0
948 4.0
949 4.0
950 2.0
951 4.0
952 4.0
953 -2.0
954 2.0
955 -2.0
956 4.0
957 4.0
958 4.0
959 2.0
960 2.0
961 4.0
962 2.0
963 2.0
964 2.0
965 2.0
966 -2.0
967 4.0
968 4.0
969 2.0
970 2.0
971 4.0
972 -2.0
973 2.0
974 2.0
975 -2.0
976 -2.0
977 -2.0
978 2.0
979 4.0
980 -2.0
981 2.0
982 -2.0
983 -2.0
984 4.0
985 -2.0
986 2.0
987 2.0
988 2.0
989 2.0
990 2.0
991 -2.0
992 -4.0
993 2.0
994 -2.0
995 4.0
996 2.0
997 4.0
998 4.0
999 2.0
1000 4.0
1001 2.0
1002 4.0
1003 4.0
1004 2.0
1005 -2.0
1006 4.0
1007 -2.0
1008 2.0
1009 2.0
1010 2.0
1011 4.0
1012 4.0
1013 4.0
1014 2.0
1015 2.0
1016 4.0
1017 -2.0
1018 2.0
1019 2.0
1020 -2.0
1021 -2.0
1022 -2.0
1023 -2.0
1024 2.0
1025 2.0
1026 4.0
1027 -2.0
1028 -2.0
1029 2.0
1030 4.0
1031 -4.0
1032 2.0
1033 2.0
1034 2.0
1035 -2.0
1036 -4.0
1037 2.0
1038 -2.0
1039 4.0
1040 2.0
1041 2.0
1042 4.0
1043 4.0
1044 4.0
1045 4.0
1046 -2.0
1047 2.0
1048 4.0
1049 2.0
1050 4.0
1051 4.0
1052 4.0
1053 2.0
1054 2.0
1055 -2.0
1056 4.0
1057 -2.0
1058 2.0
1059 2.0
1060 2.0
1061 2.0
1062 4.0
1063 2.0
1064 4.0
1065 4.0
1066 2.0
1067 4.0
1068 -2.0
1069 2.0
1070 2.0
1071 2.0
1072 4.0
1073 2.0
1074 2.0
1075 -2.0
1076 4.0
1077 -2.0
1078 4.0
1079 -2.0
1080 2.0
1081 2.0
1082 4.0
1083 -2.0
1084 4.0
1085 -2.0
1086 2.0
1087 2.0
1088 2.0
1089 2.0
1090 -4.0
1091 2.0
1092 -4.0
1093 4.0
1094 2.0
1095 2.0
1096 4.0
1097 2.0
1098 -2.0
1099 4.0
1100 4.0
1101 2.0
1102 4.0
1103 4.0
1104 2.0
1105 4.0
1106 -2.0
1107 4.0
1108 -2.0
1109 2.0
1110 4.0
1111 2.0
1112 4.0
1113 2.0
1114 2.0
1115 4.0
1116 2.0
1117 4.0
1118 2.0
1119 4.0
1120 2.0
1121 4.0
1122 -2.0
1123 2.0
1124 2.0
1125 2.0
1126 4.0
1127 2.0
1128 2.0
1129 -2.0
1130 2.0
1131 4.0
1132 -2.0
1133 2.0
1134 2.0
1135 4.0
1136 -2.0
1137 2.0
1138 4.0
1139 -2.0
1140 4.0
1141 -2.0
1142 2.0
1143 -2.0
1144 2.0
1145 -2.0
1146 2.0
1147 -4.0
1148 2.0
1149 -4.0
1150 4.0
1151 2.0
1152 2.0
1153 2.0
1154 4.0
1155 4.0
1156 4.0
1157 4.0
1158 4.0
1159 2.0
1160 -2.0
1161 4.0
1162 2.0
1163 2.0
1164 4.0
1165 4.0
1166 -2.0
1167 4.0
1168 -2.0
1169 2.0
1170 4.0
1171 4.0
1172 4.0
1173 2.0
1174 2.0
1175 -2.0
1176 4.0
1177 2.0
1178 4.0
1179 2.0
1180 4.0
1181 2.0
1182 4.0
1183 -2.0
1184 2.0
1185 2.0
1186 2.0
1187 4.0
1188 4.0
1189 -2.0
1190 4.0
1191 -2.0
1192 2.0
1193 4.0
1194 -2.0
1195 2.0
1196 2.0
1197 4.0
1198 -2.0
1199 2.0
1200 4.0
1201 -2.0
1202 4.0
1203 -2.0
1204 2.0
1205 -2.0
1206 2.0
1207 -2.0
1208 2.0
1209 -2.0
1210 2.0
1211 -2.0
1212 4.0
1213 2.0
1214 2.0
1215 2.0
1216 2.0
1217 4.0
1218 4.0
1219 4.0
1220 2.0
1221 4.0
1222 2.0
1223 2.0
1224 4.0
1225 -2.0
0.0 # objective constant
1.79769313486232E+308 # value for infinity
0.0 # default variable primal value in starting point
0 # number of non-default variable primal values in starting point
0.0 # default variable bound dual value in starting point
0 # number of non-default variable bound dual values in starting point
0 # number of non-default variable names
0 # number of non-default constraint names
